(set-logic ALL)
(set-option :produce-models true)
(declare-sort BoundSet 0)
(declare-sort UnboundSet 0)
(set-option :finite-model-find true)
(declare-fun IsInBlack (BoundSet) Bool)
(declare-fun Reviews (BoundSet BoundSet) Bool)
(declare-fun HasJob (BoundSet) Bool)
(assert (not (=> (exists ((b BoundSet)) (exists ((a BoundSet)) (and (IsInBlack a) (Reviews a b)))) (exists ((a BoundSet)) (and (IsInBlack a) (HasJob a))))))
(check-sat)
(get-model)